Route #1: 0 40 10 14 62 12 59 74 0
Route #2: 0 23 11 52 18 52 63 0
Route #3: 0 71 28 48 2 6 24 0
Route #4: 0 70 76 72 39 17 29 5 44 51 0
Route #5: 0 32 45 22 9 41 64 0
Route #6: 0 31 46 25 75 61 57 26 47 69 56 15 33 0
Route #7: 0 30 79 37 8 68 43 20 27 60 0
Route #8: 0 42 77 3 53 66 67 36 0
Route #9: 0 21 7 1 13 73 49 0
Route #10: 0 34 78 16 19 35 65 55 54 4 50 58 38 0
Cost 2182:
